c --- [ banner ] -------------------------------------------------------------
c 
c CaDiCaL Radically Simplified CDCL SAT Solver
c Copyright (c) 2016-2021 A. Biere, M. Fleury, N. Froleyks
c 
c Version 1.5.2 ca2dd1661408261d5d9922f656c807ded88978da
c g++ (Ubuntu 7.5.0-3ubuntu1~18.04) 7.5.0 -Wall -Wextra -O3 -DNDEBUG
c Sat Feb 26 22:54:12 EST 2022 Linux fac-vanhoeve01 5.4.0-99-generic x86_64
c 
c --- [ parsing input ] ------------------------------------------------------
c 
c reading DIMACS file from '<stdin>' (use '-h' for a list of common options)
c found 'p cnf 2692 7976' header
c parsed 7976 clauses in 0.00 seconds process time
c disconnecting from '<stdin>'
c after reading 106558 bytes 0.1 MB
c 
c --- [ options ] ------------------------------------------------------------
c 
c all options are set to their default value
c 
c --- [ solving ] ------------------------------------------------------------
c 
c time measured in process time since initialization
c 
c  seconds  reductions  redundant irredundant
c         MB    restarts       trail    variables
c          level   conflicts       glue      remaining
c 
c *  0.00  4  0 0   0    0    0  0% 0 7974 2618 97%
c {  0.01  4  0 0   0    0    0  0% 0 7974 2618 97%
c -  0.02  5 71 1  37  300  281 66% 8 7902 2618 97%
c -  0.06  5 41 2 128  900  745 80% 9 7902 2618 97%
c }  0.07  5 38 2 128 1002  840 81% 9 7902 2618 97%
c [  0.07  5  0 2 128 1002  840  0% 0 7902 2618 97%
c O  0.07  5 15 2 128 1003  841 95% 6 7902 2618 97%
c -  0.11  6 15 3 128 1801  897 94% 13 7902 2618 97%
c ]  0.18  6 17 3 129 3004 1713 94% 14 7902 2618 97%
c {  0.18  6 38 3 129 3004 1713 81% 9 7902 2618 97%
c -  0.18  6 38 4 129 3004 1238 81% 9 7902 2618 97%
c F  0.18  6 38 4 129 3005 1239 81% 9 7902 2618 97%
c s  0.20  6 36 4 165 3215 1441 82% 9 7902 2618 97%
c e  0.22  6 36 4 165 3215   75 82% 9 5684 885 33%
c s  0.22  6 36 4 165 3215   73 82% 9 5684 885 33%
c -  0.28  6 27 5 216 4504 1215 82% 9 5684 885 33%
c p  0.31  6 25 5 218 5000 1681 84% 9 5684 885 33%
c #  0.35  6 24 5 331 6006 2623 84% 9 5684 885 33%
c -  0.36  6 24 6 371 6306 2226 84% 9 5684 885 33%
c }  0.40  6 24 6 466 7005 2879 83% 9 5684 885 33%
c 
c  seconds  reductions  redundant   irredundant
c         MB    restarts       trail      variables
c          level   conflicts        glue      remaining
c 
c [  0.40  6 17 6 466 7005 2879 286% 14 5684 885 33%
c -  0.47  6 26 7 467 8407 2925 205% 17 5684 885 33%
c I  0.55  6 30 7 468 10007 4362 167% 20 5684 885 33%
c -  0.60  7 30 8 469 10807 3316 156% 19 5684 885 33%
c -  0.76  7 30 9 471 13508 3629 135% 18 5684 885 33%
c s  0.79  7 30 9 471 13949 4029 133% 18 5684 885 33%
c s  0.80  7 30 9 471 13949 4028 133% 18 5684 885 33%
c ^  0.80  7 30 9 471 13949 4028 133% 18 5684 885 33%
c p  0.87  7 30 9 471 15001 5017 128% 19 5684 885 33%
c ]  0.88  7 30 9 471 15006 5022 128% 19 5684 885 33%
c {  0.88  7 24 9 471 15006 5022 83% 9 5684 885 33%
c B  0.88  7 24 9 471 15008 5024 83% 9 5684 885 33%
c -  0.95  7 22 10 548 16508 4144 81% 9 5684 885 33%
c -  1.11  6 22 11 876 19808 4711 82% 10 5684 885 33%
c W  1.18  6 22 11 966 21009 5822 83% 10 5684 885 33%
c -  1.28  7 21 12 1092 23408 5137 80% 10 5684 885 33%
c -  1.44  7 19 13 1115 27308 5460 77% 9 5684 885 33%
c F  1.47  7 19 13 1140 28011 6080 77% 9 5684 885 33%
c p  1.55  7 19 13 1209 30001 7730 78% 9 5684 885 33%
c s  1.57  7 19 13 1213 30049 7734 78% 9 5684 885 33%
c 
c  seconds  reductions     redundant irredundant
c         MB     restarts         trail    variables
c          level      conflicts       glue     remaining
c 
c s  1.59  7 19 13 1213 30049 7729 78% 9 5684 885 33%
c ^  1.59  7 19 13 1213 30049 7729 78% 9 5684 885 33%
c }  1.65  7 19 13 1377 31006 8634 78% 9 5684 885 33%
c [  1.65  7 30 13 1377 31006 8634 128% 19 5684 885 33%
c -  1.67  7 30 14 1377 31509 6394 126% 18 5684 885 33%
c -  1.89  8 26 15 1380 36011 6303 115% 17 5684 885 33%
c B  1.90  8 26 15 1380 36012 6304 115% 17 5684 885 33%
c -  2.16  8 31 16 1383 40812 6640 108% 19 5684 885 33%
c W  2.41  8 31 16 1384 45014 10265 104% 19 5684 885 33%
c -  2.47  8 31 17 1385 45912 6916 104% 19 5684 885 33%
c p  2.71  8 30 17 1385 50001 10371 101% 19 5684 881 33%
c -  2.79  7 30 18 1385 51313 7154 101% 19 5672 881 33%
c s  2.81  7 30 18 1385 51516 7324 101% 19 5666 881 33%
c w  2.82  7 30 18 1385 51516 7324 101% 19 5666 881 33%
c s  2.83  7 30 18 1385 51516 7321 101% 19 5666 881 33%
c ^  2.83  7 30 18 1385 51516 7321 101% 19 5666 881 33%
c O  3.03  7 29 18 1386 55017 9840 99% 19 5666 881 33%
c -  3.14  8 28 19 1388 57013 7013 99% 19 5666 881 33%
c ]  3.47  8 27 19 1392 63007 11250 97% 18 5666 881 33%
c {  3.47  8 19 19 1392 63007 11250 78% 9 5666 881 33%
c 
c  seconds  reductions     redundant irredundant
c         MB     restarts         trail    variables
c          level      conflicts       glue     remaining
c 
c -  3.48  8 19 20 1395 63016 7049 78% 9 5666 881 33%
c B  3.64  8 19 20 1864 66022 9891 79% 9 5666 881 33%
c -  3.82  8 19 21 2163 69317 8696 80% 10 5666 881 33%
c p  4.12  8 19 21 2688 75002 13953 80% 10 5666 881 33%
c -  4.18  9 19 22 2719 75917 9965 81% 10 5666 881 33%
c W  4.31  9 19 22 2880 78023 11817 81% 10 5666 881 33%
c s  4.35  9 19 22 2916 78368 12094 81% 10 5666 881 33%
c v  4.36  9 19 22 2916 78368 12094 81% 10 5666 881 33%
c w  4.36  9 19 22 2916 78368 12093 81% 10 5666 881 33%
c e  4.37  9 19 22 2916 78368 12093 81% 10 5672 879 33%
c s  4.39  9 19 22 2916 78368 12090 81% 10 5672 879 33%
c ^  4.39  9 19 22 2916 78368 12090 81% 10 5672 879 33%
c -  4.63 10 19 23 3332 82817 10904 80% 10 5672 879 33%
c -  5.03 10 19 24 3867 90018 11522 81% 10 5672 879 33%
c #  5.08 10 19 24 3906 91024 12345 81% 10 5672 879 33%
c -  5.45 10 19 25 4351 97518 12257 81% 10 5672 879 33%
c p  5.86 10 19 25 4869 105003 18997 81% 10 5672 879 33%
c B  5.86 10 19 25 4869 105026 19017 81% 10 5672 879 33%
c -  5.89  9 19 26 4908 105318 12996 81% 10 5672 879 33%
c s  6.20  9 19 26 5235 110649 17907 82% 10 5672 879 33%
c 
c  seconds  reductions       redundant  irredundant
c         MB     restarts           trail     variables
c          level      conflicts         glue      remaining
c 
c w  6.22  9 19 26 5235 110649 17906 82% 10 5672 879 33%
c e  6.24  9 19 26 5235 110649 4581 82% 10 7957 581 22%
c s  6.25  9 19 26 5235 110649 4580 82% 10 7957 581 22%
c ^  6.25  9 19 26 5235 110649 4580 82% 10 7957 581 22%
c -  6.38  9 19 27 5380 113420 5562 80% 10 7957 581 22%
c W  6.75  9 19 27 5946 120027 11615 82% 10 7957 581 22%
c -  6.86 10 19 28 6084 121823 10664 82% 10 7957 581 22%
c }  7.11 10 19 28 6384 127007 15361 82% 10 7957 581 22%
c [  7.11 10 27 28 6384 127007 15361 148% 18 7957 581 22%
c -  7.30 10 26 29 6384 130524 12834 142% 18 7957 581 22%
c B  7.62 10 25 29 6389 136028 17925 134% 17 7957 581 22%
c -  7.83 10 26 30 6391 139525 13960 131% 17 7957 581 22%
c p  7.87 10 26 30 6391 140004 14398 130% 17 7957 581 22%
c -  8.43 10 25 31 6392 148827 11984 122% 18 7957 581 22%
c W  8.74 10 25 31 6393 153031 14884 119% 18 7957 581 22%
c -  9.09 10 27 32 6393 158427 12744 116% 19 7957 581 22%
c s  9.43 10 28 32 6393 163510 17376 114% 19 7957 581 22%
c w  9.45 10 28 32 6393 163510 17375 114% 19 7957 581 22%
c e  9.46 10 28 32 6393 163510 16781 114% 19 8066 573 21%
c s  9.48 10 28 32 6393 163510 16781 114% 19 8066 573 21%
c 
c  seconds  reductions       redundant   irredundant
c         MB     restarts           trail      variables
c          level      conflicts          glue      remaining
c 
c -  9.82 10 28 33 6394 168328 13030 112% 19 8066 573 21%
c I  9.99 10 28 33 6396 171033 15056 110% 19 8066 573 21%
c - 10.43 10 28 34 6400 178529 13732 107% 19 8066 573 21%
c p 10.53 10 28 34 6400 180004 14982 107% 19 8066 573 21%
c - 11.15 11 28 35 6407 189030 13840 104% 19 8066 573 21%
c B 11.22 11 28 35 6407 190036 14520 104% 19 8066 573 21%
c - 11.82 13 30 36 6408 199833 14653 101% 20 8066 573 21%
c W 12.54 13 30 36 6415 210037 22641 99% 21 8066 573 21%
c - 12.61 11 30 37 6415 210935 14879 99% 21 8066 573 21%
c - 13.45 13 30 38 6422 222335 14904 97% 21 8066 573 21%
c s 13.62 13 30 38 6422 224555 16750 97% 21 8066 573 21%
c w 13.64 13 30 38 6422 224555 16747 97% 21 8066 573 21%
c s 13.66 13 30 38 6422 224555 16747 97% 21 8066 573 21%
c p 13.70 13 30 38 6422 225004 17136 97% 21 8066 573 21%
c O 14.17 13 30 38 6423 231041 21431 96% 21 8066 573 21%
c - 14.37 11 30 39 6423 234035 14958 95% 21 8066 573 21%
c - 15.12 12 29 40 6424 246036 14722 94% 21 8066 573 21%
c B 15.57 12 28 40 6425 253043 20180 93% 20 8066 573 21%
c ] 15.69 12 28 40 6425 255008 21938 93% 20 8066 573 21%
c { 15.69 12 19 40 6425 255008 21938 82% 10 8066 573 21%
c 
c  seconds  reductions       redundant  irredundant
c         MB     restarts           trail     variables
c          level      conflicts         glue      remaining
c 
c - 15.90 13 19 41 6599 258337 16766 82% 10 8066 573 21%
c - 16.67 15 19 42 7382 270937 18373 82% 10 8066 573 21%
c p 16.91 15 19 42 7560 275005 22127 82% 10 8066 573 21%
c F 16.98 15 19 42 7660 276046 23076 82% 10 8066 573 21%
c - 17.50 11 19 43 8269 283837 20723 81% 10 8066 573 21%
c - 18.34 13 19 44 9191 297039 21558 81% 10 8066 573 21%
c B 18.52 13 19 44 9315 300047 24408 81% 10 8066 573 21%
c - 19.23 14 19 45 9866 310542 22480 81% 10 8066 573 21%
c - 20.29 16 19 46 11050 324343 24047 82% 10 8066 573 21%
c W 20.42 16 19 46 11116 325049 24698 82% 10 8066 573 21%
c p 20.77 16 19 46 11559 330007 29181 82% 10 8066 573 21%
c - 21.36 12 19 47 11982 338443 24408 82% 10 8066 573 21%
c # 22.23 12 19 47 12891 351051 35631 81% 10 8066 573 21%
c - 22.40 12 19 48 13025 352844 25206 81% 10 8066 573 21%
c - 23.59 15 19 49 14664 367544 27064 81% 10 8066 573 21%
c B 24.44 15 19 49 15726 378052 36682 81% 10 8066 573 21%
c - 24.83 15 19 50 16070 382545 27484 81% 10 8066 573 21%
c p 25.44 15 19 50 16709 390007 34423 81% 10 8066 572 21%
c s 25.50 15 19 50 16709 390007 34295 81% 10 8066 572 21%
c v 25.54 15 19 50 16709 390007 34295 81% 10 8061 572 21%
c 
c  seconds  reductions        redundant  irredundant
c         MB      restarts           trail     variables
c          level       conflicts         glue      remaining
c 
c w 25.58 15 19 50 16709 390007 34279 81% 10 8061 572 21%
c s 25.65 15 19 50 16709 390007 34269 81% 10 8056 572 21%
c - 26.28 15 19 51 17147 397845 28750 81% 10 8056 572 21%
c W 26.97 15 19 51 17633 406053 36063 81% 10 8056 572 21%
c - 27.65 15 19 52 18343 413447 29191 81% 10 8056 572 21%
c - 28.91 14 19 53 19464 429347 29709 81% 10 8056 572 21%
c F 29.33 14 19 53 19889 435056 34707 81% 10 8056 572 21%
c - 30.19 17 19 54 20671 445547 30393 81% 10 8056 572 21%
c p 30.96 17 19 54 21467 455007 38921 81% 10 8056 572 21%
c - 31.63 15 19 55 22169 462049 31447 81% 10 8056 572 21%
c B 31.85 15 19 55 22321 465057 34128 81% 10 8056 572 21%
c s 32.02 15 19 55 22411 466327 35244 81% 10 8056 572 21%
c w 32.08 15 19 55 22411 466327 35240 81% 10 8056 572 21%
c s 32.15 15 19 55 22411 466327 35236 81% 10 8056 572 21%
c - 33.25 15 19 56 23336 478849 32069 81% 10 8056 572 21%
c - 34.62 15 18 57 24200 495950 32724 81% 10 8056 572 21%
c W 34.76 15 18 57 24200 496058 32812 81% 10 8056 572 21%
c } 35.96 15 18 57 25155 511008 45778 81% 10 8056 572 21%
c [ 35.96 15 28 57 25155 511008 45778 93% 20 8056 572 21%
c - 36.13 15 28 58 25155 513350 33170 93% 20 8056 572 21%
c 
c  seconds  reductions        redundant  irredundant
c         MB      restarts           trail     variables
c          level       conflicts         glue      remaining
c 
c p 36.90 15 26 58 25155 525008 41661 91% 19 8056 572 21%
c W 37.30 15 28 58 25155 528062 44547 91% 19 8056 572 21%
c - 37.56 15 28 59 25155 531050 31332 91% 19 8056 572 21%
c - 39.11 15 29 60 25162 549050 30521 90% 20 8056 572 21%
c I 40.23 15 28 60 25169 561063 40619 89% 20 8056 572 21%
c - 40.80 16 29 61 25170 567351 31406 89% 20 8056 572 21%
c - 42.53 17 30 62 25177 585952 32008 89% 20 8056 572 21%
c B 43.50 17 30 62 25184 595065 39786 89% 21 8056 572 21%
c p 43.94 17 30 62 25185 600009 44369 89% 21 8056 572 21%
c - 44.38 16 30 63 25185 604852 32128 89% 21 8056 572 21%
c - 46.21 16 29 64 25187 624053 32169 89% 20 8056 572 21%
c W 46.94 16 28 64 25192 630066 37216 89% 20 8056 572 21%
c - 48.38 19 27 65 25199 643553 31809 89% 20 8056 572 21%
c - 50.13 19 27 66 25207 663353 31862 88% 19 8056 572 21%
c O 50.33 19 26 66 25208 666070 34115 88% 19 8056 572 21%
c p 51.47 19 25 66 25215 680011 44330 88% 19 8056 572 21%
c - 51.76 19 25 67 25216 683458 30195 88% 19 8056 572 21%
c B 53.40 19 24 67 25217 703073 44573 88% 18 8056 572 21%
c - 53.48 19 24 68 25217 703860 30788 88% 18 8056 572 21%
c - 55.23 19 24 69 25218 724561 32392 88% 18 8056 572 21%
c 
c  seconds  reductions        redundant  irredundant
c         MB      restarts           trail     variables
c          level       conflicts         glue      remaining
c 
c W 56.97 19 24 69 25219 741074 46477 87% 18 8056 572 21%
c - 57.45 22 25 70 25219 745561 33439 87% 18 8056 572 21%
c p 59.28 22 25 70 25219 765012 48937 87% 19 8056 572 21%
c - 59.56 22 25 71 25219 766861 33569 87% 19 8056 572 21%
c I 60.68 22 25 71 25219 780075 43827 87% 19 8056 572 21%
c - 61.39 22 26 72 25219 788463 35246 87% 19 8056 572 21%
c - 63.49 18 27 73 25223 810363 37180 87% 19 8056 572 21%
c B 64.36 18 27 73 25228 820076 45469 87% 19 8056 572 21%
c - 65.53 17 27 74 25234 832563 35464 87% 19 8056 572 21%
c p 67.77 17 26 74 25244 855013 52188 87% 19 8056 572 21%
c - 67.82 20 26 75 25244 855063 34096 87% 19 8056 572 21%
c W 68.55 20 26 75 25248 861077 38664 87% 19 8056 572 21%
c - 70.26 20 26 76 25250 877863 34767 87% 19 8056 572 21%
c - 72.65 21 27 77 25257 900963 36706 87% 20 8056 572 21%
c s 72.71 21 27 77 25257 900963 36678 87% 20 8056 572 21%
c w 72.82 21 27 77 25257 900963 36673 87% 20 8056 572 21%
c O 73.06 21 27 77 25259 903080 38191 87% 20 8056 572 21%
c - 74.84 21 25 78 25267 924364 33322 86% 19 8056 572 21%
c B 76.69 21 24 78 25279 946082 48255 86% 18 8056 572 21%
c - 76.91 21 24 79 25280 948064 34271 86% 19 8056 572 21%
c 
c  seconds  reductions        redundant  irredundant
c         MB      restarts           trail     variables
c          level       conflicts         glue      remaining
c 
c p 77.09 21 25 79 25280 950014 35880 86% 19 8056 572 21%
c - 79.06 21 24 80 25281 972064 33577 87% 18 8056 572 21%
c W 81.01 21 24 80 25282 990083 48646 87% 18 8056 572 21%
c - 81.66 21 23 81 25282 996364 36459 87% 18 8056 572 21%
c - 84.07 21 22 82 25292 1020967 35287 87% 17 8056 572 21%
c ] 84.24 21 22 82 25294 1023008 36621 87% 17 8056 572 21%
c { 84.24 21 18 82 25294 1023008 36621 81% 10 8056 572 21%
c # 85.26 21 18 82 26304 1035084 47366 81% 10 8056 572 21%
c - 86.19 22 18 83 26871 1045870 39956 81% 10 8056 572 21%
c p 86.53 22 18 83 27044 1050015 43704 82% 10 8056 572 21%
c - 88.59 22 18 84 28625 1071070 43891 82% 10 8056 572 21%
c B 89.49 22 18 84 29329 1081085 53073 82% 10 8056 572 21%
c - 91.06 22 18 85 30394 1096572 46442 81% 10 8056 572 21%
c - 93.76 22 18 86 32387 1122372 47597 80% 10 8056 572 21%
c W 94.53 22 18 86 32779 1128086 52832 80% 10 8056 572 21%
c - 96.67 22 18 87 34008 1148473 49244 81% 10 8056 572 21%
c p 97.39 22 18 87 34655 1155018 55276 81% 10 8056 572 21%
c - 99.64 25 18 88 36075 1174874 50693 81% 10 8056 572 21%
c F 99.73 25 18 88 36104 1176087 51742 81% 10 8056 572 21%
c - 102.54 29 18 89 37880 1201575 51429 81% 10 8056 572 21%
c 
c  seconds   reductions         redundant  irredundant
c          MB      restarts            trail     variables
c           level        conflicts         glue      remaining
c 
c B 104.94 29 18 89 39225 1225090 71928 81% 10 8056 572 21%
c - 105.53 29 18 90 39674 1228575 52045 81% 10 8056 572 21%
c - 108.65 29 18 91 41509 1255875 53511 81% 10 8056 572 21%
c p 109.61 29 18 91 42177 1265020 61673 81% 10 8056 572 21%
c W 110.78 29 17 91 42261 1275096 69405 82% 10 8056 572 21%
c - 111.78 29 17 92 42660 1283475 52446 82% 10 8056 572 21%
c - 114.70 29 17 93 44301 1311375 54627 82% 10 8056 572 21%
c # 116.32 29 17 93 45371 1326101 67640 82% 10 8056 572 21%
c - 118.09 29 17 94 46453 1339575 56094 82% 10 8056 572 21%
c - 120.72 29 16 95 47379 1368076 53094 78% 10 8056 572 21%
c s 120.90 29 16 95 47379 1368076 52397 78% 10 8056 572 21%
c w 121.05 29 16 95 47379 1368076 52356 78% 10 8056 572 21%
c B 122.18 29 16 95 48535 1378104 61330 78% 10 8056 572 21%
c p 122.50 29 16 95 48749 1380021 63104 78% 10 8056 571 21%
c s 122.71 29 16 95 48749 1380021 63069 78% 10 8051 571 21%
c - 124.93 29 17 96 50349 1396878 58968 79% 10 8051 571 21%
c - 129.00 30 17 97 53314 1425978 59695 79% 10 8051 571 21%
c W 129.89 30 17 97 53636 1431105 64070 79% 10 8051 571 21%
c - 132.71 30 17 98 55066 1455378 58764 80% 10 8051 571 21%
c s 134.79 30 17 98 56242 1471644 73271 80% 10 8040 571 21%
c 
c  seconds   reductions         redundant  irredundant
c          MB      restarts            trail     variables
c           level        conflicts         glue      remaining
c 
c w 134.92 30 17 98 56242 1471644 73267 80% 10 8040 571 21%
c s 135.15 30 17 98 56242 1471644 73260 80% 10 8040 571 21%
c - 136.88 30 17 99 57131 1485078 60833 81% 10 8040 571 21%
c F 136.89 30 17 99 57131 1485108 60856 81% 10 8040 571 21%
c p 138.73 30 17 99 58314 1500021 73400 80% 10 8040 571 21%
c - 140.66 30 17 100 59340 1515078 60846 81% 10 8040 571 21%
c B 143.58 30 17 100 60907 1540113 82507 81% 10 8040 571 21%
c - 144.30 30 17 101 61171 1545381 61993 81% 10 8040 571 21%
c - 147.99 30 17 102 62937 1575982 63274 81% 10 8040 571 21%
c W 150.79 30 17 102 64099 1596115 80776 81% 10 8040 571 21%
c - 152.43 31 17 103 64985 1606884 64274 81% 10 8040 571 21%
c p 154.76 31 17 103 66478 1625021 80463 82% 10 8040 571 21%
c - 156.65 31 17 104 67283 1638085 65553 82% 10 8040 571 21%
c # 158.45 31 17 104 68234 1653117 78548 82% 10 8040 571 21%
c - 160.95 31 17 105 69472 1669589 66814 82% 10 8040 571 21%
c - 164.98 31 17 106 71339 1701390 67071 81% 10 8040 571 21%
c B 166.05 31 17 106 71845 1711118 75569 81% 10 8040 571 21%
c - 168.66 31 16 107 72856 1733492 67232 82% 10 8040 571 21%
c p 171.21 31 16 107 73900 1755021 86393 82% 10 8040 570 21%
c s 171.52 31 16 107 73900 1755021 86252 82% 10 8040 570 21%
c 
c  seconds    reductions         redundant  irredundant
c          MB       restarts            trail     variables
c           level         conflicts         glue      remaining
c 
c v 171.57 31 16 107 73900 1755021 86252 82% 10 8026 570 21%
c w 171.75 31 16 107 73900 1755021 86238 82% 10 8026 570 21%
c e 171.77 31 16 107 73900 1755021 86238 82% 10 8026 569 21%
c s 172.07 31 16 107 73900 1755021 86229 82% 10 8026 569 21%
c - 173.65 23 16 108 74471 1765893 69170 82% 10 8026 569 21%
c W 174.51 23 16 108 74677 1770119 72719 82% 10 8026 569 21%
c - 178.28 24 16 109 76222 1798593 69091 82% 10 8026 569 21%
c F 182.76 24 16 109 78578 1830122 96607 82% 10 8026 569 21%
c - 183.08 24 16 110 78711 1831596 70843 82% 10 8026 569 21%
c s 187.69 25 16 110 80816 1861933 97168 81% 10 8026 569 21%
c w 187.87 25 16 110 80816 1861933 97166 81% 10 8026 569 21%
c s 188.22 25 16 110 80816 1861933 97162 81% 10 8026 569 21%
c - 188.69 25 16 111 80873 1864896 71782 81% 10 8026 569 21%
c p 191.84 25 16 111 82193 1890026 93019 81% 10 8026 568 21%
c B 192.10 25 16 111 82337 1891125 93995 81% 10 8026 568 21%
c - 193.54 24 16 112 83112 1898496 72266 81% 10 8021 568 21%
c - 198.17 29 16 113 85522 1932397 72085 82% 10 8021 568 21%
c W 201.65 29 16 113 87084 1953127 89977 82% 10 8021 568 21%
c - 203.78 33 16 114 88076 1966598 74115 82% 10 8021 568 21%
c s 205.43 33 16 114 88872 1976479 82664 82% 10 8010 568 21%
c 
c  seconds    reductions         redundant  irredundant
c          MB       restarts            trail     variables
c           level         conflicts         glue      remaining
c 
c w 205.57 33 16 114 88872 1976479 82663 82% 10 8010 568 21%
c s 205.87 33 16 114 88872 1976479 82660 82% 10 8010 568 21%
c - 209.57 33 16 115 90606 2001099 75911 81% 10 8010 568 21%
c # 211.63 33 16 115 91764 2016128 89057 81% 10 8010 568 21%
c p 213.75 33 17 115 92767 2030029 101090 81% 10 8010 568 21%
c - 214.60 38 16 116 93029 2035900 76263 81% 10 8010 568 21%
c } 216.25 38 17 116 94108 2047010 86018 82% 10 8010 568 21%
c [ 216.25 38 22 116 94108 2047010 86018 87% 17 8010 568 21%
c - 219.42 33 21 117 94118 2071000 75053 86% 16 8010 568 21%
c I 220.71 33 21 117 94123 2080131 82346 86% 16 8010 568 21%
c - 223.60 38 21 118 94127 2106400 71653 86% 16 8010 568 21%
c - 228.14 33 21 119 94142 2142100 68216 86% 16 8010 568 21%
c B 228.43 33 22 119 94142 2145132 70928 86% 17 8010 568 21%
c p 232.06 33 26 119 94157 2175030 96464 86% 19 8010 568 21%
c - 232.51 39 26 120 94157 2178102 68273 86% 20 8010 568 21%
c ] 237.26 39 29 120 94159 2211134 94132 85% 22 8010 568 21%
c 1 237.26 39 29 120 94159 2211134 94132 85% 22 8010 568 21%
c 
c --- [ result ] -------------------------------------------------------------
c 
s SATISFIABLE
v -1 -2 -3 -4 -5 -6 -7 8 -9 10 -11 -12 -13 -14 -15 -16 -17 -18 -19 -20 -21 -22
v -23 24 -25 26 -27 28 -29 -30 31 -32 -33 -34 -35 -36 37 38 -39 -40 -41 -42
v -43 -44 -45 -46 47 -48 -49 -50 -51 -52 -53 54 55 56 -57 -58 59 -60 -61 62 63
v -64 -65 -66 -67 -68 -69 -70 -71 -72 -73 -74 -75 -76 -77 -78 -79 -80 -81 82
v -83 -84 85 86 -87 -88 -89 -90 -91 -92 -93 -94 -95 -96 -97 -98 -99 -100 -101
v -102 -103 -104 -105 -106 -107 -108 109 -110 -111 -112 113 -114 -115 -116
v -117 -118 119 120 121 -122 -123 -124 -125 -126 -127 -128 129 -130 -131 -132
v -133 -134 -135 -136 -137 -138 -139 140 -141 -142 -143 144 -145 -146 -147 148
v -149 -150 -151 -152 -153 -154 -155 156 -157 -158 -159 -160 -161 162 -163
v -164 -165 -166 -167 -168 -169 -170 -171 -172 173 174 -175 -176 -177 -178
v -179 180 -181 182 -183 -184 -185 -186 -187 -188 -189 -190 -191 -192 -193
v -194 195 -196 -197 -198 -199 -200 -201 -202 -203 -204 -205 -206 -207 -208
v -209 -210 211 -212 -213 214 -215 216 -217 -218 -219 -220 -221 -222 223 -224
v -225 -226 -227 -228 -229 -230 231 232 -233 -234 -235 -236 -237 -238 -239 240
v 241 -242 -243 -244 -245 246 -247 -248 -249 -250 -251 252 -253 -254 255 -256
v 257 -258 -259 -260 261 -262 -263 -264 265 -266 -267 -268 269 270 -271 272
v -273 274 -275 276 277 278 -279 -280 281 -282 -283 284 -285 -286 287 -288 289
v -290 291 -292 -293 294 -295 -296 -297 -298 299 300 -301 302 303 -304 305
v -306 -307 308 309 -310 -311 -312 -313 314 -315 316 317 -318 319 320 -321 322
v -323 -324 -325 326 327 328 329 330 331 332 333 334 335 336 337 338 339 340
v 341 342 343 344 345 346 347 348 349 350 351 352 353 354 355 356 357 358 359
v 360 361 362 363 364 365 366 367 368 369 370 371 372 373 374 375 376 377 378
v 379 380 381 382 383 384 385 386 387 388 389 390 391 392 393 394 395 396 397
v 398 -399 -400 -401 -402 403 404 405 406 407 408 409 410 411 412 413 414 415
v 416 417 418 419 420 421 422 423 424 425 426 427 428 429 430 431 432 433 434
v 435 436 437 438 439 440 441 442 443 444 445 446 447 448 449 450 451 452 453
v 454 455 456 457 458 459 460 461 462 463 464 465 466 467 468 469 470 471 472
v -473 -474 -475 -476 -477 -478 479 480 481 482 483 484 485 486 487 488 489
v 490 491 492 493 494 495 496 497 498 499 500 501 502 503 504 505 506 507 508
v 509 510 511 512 513 514 515 516 517 518 519 520 521 522 523 524 525 526 527
v 528 529 530 531 532 533 534 535 536 537 538 539 540 541 542 543 544 545 546
v -547 -548 -549 -550 -551 -552 -553 -554 -555 -556 557 558 559 560 561 562
v 563 564 565 566 567 568 569 570 571 572 573 574 575 576 577 578 579 580 581
v 582 583 584 585 586 587 588 589 590 591 592 593 594 595 596 597 598 599 600
v 601 602 603 604 605 606 607 608 609 610 611 612 613 614 615 616 617 618 619
v 620 -621 -622 -623 -624 -625 -626 -627 -628 -629 -630 -631 -632 -633 -634
v 635 636 637 638 639 640 641 642 643 644 645 646 647 648 649 650 651 652 653
v 654 655 656 657 658 659 660 661 662 663 664 665 666 667 668 669 670 671 672
v 673 674 675 676 677 678 679 680 681 682 683 684 685 686 687 688 689 690 691
v 692 693 694 -695 -696 -697 -698 -699 -700 -701 -702 -703 -704 -705 -706 -707
v -708 -709 -710 -711 -712 713 714 715 716 717 718 719 720 721 722 723 724 725
v 726 727 728 729 730 731 732 733 734 735 736 737 738 739 740 741 742 743 744
v 745 746 747 748 749 750 751 752 753 754 755 756 757 758 759 760 761 762 763
v 764 765 766 767 768 -769 -770 -771 -772 -773 -774 -775 -776 -777 -778 -779
v -780 -781 -782 -783 -784 -785 -786 -787 788 789 790 791 792 793 794 795 796
v 797 798 799 800 801 802 803 804 805 806 807 808 809 810 811 812 813 814 815
v 816 817 818 819 820 821 822 823 824 825 826 827 828 829 830 831 832 833 834
v 835 836 837 838 839 840 841 842 -843 -844 -845 -846 -847 -848 -849 -850 -851
v -852 -853 -854 -855 -856 -857 -858 -859 -860 -861 -862 -863 864 865 866 867
v 868 869 870 871 872 873 874 875 876 877 878 879 880 881 882 883 884 885 886
v 887 888 889 890 891 892 893 894 895 896 897 898 899 900 901 902 903 904 905
v 906 907 908 909 910 911 912 913 914 915 916 -917 -918 -919 -920 -921 -922
v -923 -924 -925 -926 -927 -928 -929 -930 -931 -932 -933 -934 -935 -936 -937
v -938 -939 940 941 942 943 944 945 946 947 948 949 950 951 952 953 954 955
v 956 957 958 959 960 961 962 963 964 965 966 967 968 969 970 971 972 973 974
v 975 976 977 978 979 980 981 982 983 984 985 986 987 988 989 990 -991 -992
v -993 -994 -995 -996 -997 -998 -999 -1000 -1001 -1002 -1003 -1004 -1005 -1006
v -1007 -1008 -1009 -1010 -1011 -1012 -1013 -1014 -1015 1016 1017 1018 1019
v 1020 1021 1022 1023 1024 1025 1026 1027 1028 1029 1030 1031 1032 1033 1034
v 1035 1036 1037 1038 1039 1040 1041 1042 1043 1044 1045 1046 1047 1048 1049
v 1050 1051 1052 1053 1054 1055 1056 1057 1058 1059 1060 1061 1062 1063 1064
v -1065 -1066 -1067 -1068 -1069 -1070 -1071 -1072 -1073 -1074 -1075 -1076
v -1077 -1078 -1079 -1080 -1081 -1082 -1083 -1084 -1085 -1086 -1087 -1088
v -1089 -1090 1091 1092 1093 1094 1095 1096 1097 1098 1099 1100 1101 1102 1103
v 1104 1105 1106 1107 1108 1109 1110 1111 1112 1113 1114 1115 1116 1117 1118
v 1119 1120 1121 1122 1123 1124 1125 1126 1127 1128 1129 1130 1131 1132 1133
v 1134 1135 1136 1137 1138 -1139 -1140 -1141 -1142 -1143 -1144 -1145 -1146
v -1147 -1148 -1149 -1150 -1151 -1152 -1153 -1154 -1155 -1156 -1157 -1158
v -1159 -1160 -1161 -1162 -1163 -1164 -1165 1166 1167 1168 1169 1170 1171 1172
v 1173 1174 1175 1176 1177 1178 1179 1180 1181 1182 1183 1184 1185 1186 1187
v 1188 1189 1190 1191 1192 1193 1194 1195 1196 1197 1198 1199 1200 1201 1202
v 1203 1204 1205 1206 1207 1208 1209 1210 1211 1212 -1213 -1214 -1215 -1216
v -1217 -1218 -1219 -1220 -1221 -1222 -1223 -1224 -1225 -1226 -1227 -1228
v -1229 -1230 -1231 -1232 -1233 -1234 -1235 -1236 -1237 -1238 -1239 -1240
v -1241 -1242 1243 1244 1245 1246 1247 1248 1249 1250 1251 1252 1253 1254 1255
v 1256 1257 1258 1259 1260 1261 1262 1263 1264 1265 1266 1267 1268 1269 1270
v 1271 1272 1273 1274 1275 1276 1277 1278 1279 1280 1281 1282 1283 1284 1285
v 1286 -1287 -1288 -1289 -1290 -1291 -1292 -1293 -1294 -1295 -1296 -1297 -1298
v -1299 -1300 -1301 -1302 -1303 -1304 -1305 -1306 -1307 -1308 -1309 -1310
v -1311 -1312 -1313 -1314 -1315 -1316 -1317 -1318 -1319 1320 1321 1322 1323
v 1324 1325 1326 1327 1328 1329 1330 1331 1332 1333 1334 1335 1336 1337 1338
v 1339 1340 1341 1342 1343 1344 1345 1346 1347 1348 1349 1350 1351 1352 1353
v 1354 1355 1356 1357 1358 1359 1360 -1361 -1362 -1363 -1364 -1365 -1366 -1367
v -1368 -1369 -1370 -1371 -1372 -1373 -1374 -1375 -1376 -1377 -1378 -1379
v -1380 -1381 -1382 -1383 -1384 -1385 -1386 -1387 -1388 -1389 -1390 -1391
v -1392 -1393 -1394 -1395 -1396 1397 1398 1399 1400 1401 1402 1403 1404 1405
v 1406 1407 1408 1409 1410 1411 1412 1413 1414 1415 1416 1417 1418 1419 1420
v 1421 1422 1423 1424 1425 1426 1427 1428 1429 1430 1431 1432 1433 1434 -1435
v -1436 -1437 -1438 -1439 -1440 -1441 -1442 -1443 -1444 -1445 -1446 -1447
v -1448 -1449 -1450 -1451 -1452 -1453 -1454 -1455 -1456 -1457 -1458 -1459
v -1460 -1461 -1462 -1463 -1464 -1465 -1466 -1467 -1468 -1469 -1470 -1471
v -1472 1473 1474 1475 1476 1477 1478 1479 1480 1481 1482 1483 1484 1485 1486
v 1487 1488 1489 1490 1491 1492 1493 1494 1495 1496 1497 1498 1499 1500 1501
v 1502 1503 1504 1505 1506 1507 1508 -1509 -1510 -1511 -1512 -1513 -1514 -1515
v -1516 -1517 -1518 -1519 -1520 -1521 -1522 -1523 -1524 -1525 -1526 -1527
v -1528 -1529 -1530 -1531 -1532 -1533 -1534 -1535 -1536 -1537 -1538 -1539
v -1540 -1541 -1542 -1543 -1544 -1545 -1546 -1547 -1548 1549 1550 1551 1552
v 1553 1554 1555 1556 1557 1558 1559 1560 1561 1562 1563 1564 1565 1566 1567
v 1568 1569 1570 1571 1572 1573 1574 1575 1576 1577 1578 1579 1580 1581 1582
v -1583 -1584 -1585 -1586 -1587 -1588 -1589 -1590 -1591 -1592 -1593 -1594
v -1595 -1596 -1597 -1598 -1599 -1600 -1601 -1602 -1603 -1604 -1605 -1606
v -1607 -1608 -1609 -1610 -1611 -1612 -1613 -1614 -1615 -1616 -1617 -1618
v -1619 -1620 -1621 -1622 -1623 -1624 -1625 1626 1627 1628 1629 1630 1631 1632
v 1633 1634 1635 1636 1637 1638 1639 1640 1641 1642 1643 1644 1645 1646 1647
v 1648 1649 1650 1651 1652 1653 1654 1655 1656 -1657 -1658 -1659 -1660 -1661
v -1662 -1663 -1664 -1665 -1666 -1667 -1668 -1669 -1670 -1671 -1672 -1673
v -1674 -1675 -1676 -1677 -1678 -1679 -1680 -1681 -1682 -1683 -1684 -1685
v -1686 -1687 -1688 -1689 -1690 -1691 -1692 -1693 -1694 -1695 -1696 -1697
v -1698 -1699 -1700 -1701 -1702 -1703 -1704 1705 1706 1707 1708 1709 1710 1711
v 1712 1713 1714 1715 1716 1717 1718 1719 1720 1721 1722 1723 1724 1725 1726
v 1727 1728 1729 1730 -1731 -1732 -1733 -1734 -1735 -1736 -1737 -1738 -1739
v -1740 -1741 -1742 -1743 -1744 -1745 -1746 -1747 -1748 -1749 -1750 -1751
v -1752 -1753 -1754 -1755 -1756 -1757 -1758 -1759 -1760 -1761 -1762 -1763
v -1764 -1765 -1766 -1767 -1768 -1769 -1770 -1771 -1772 -1773 -1774 -1775
v -1776 -1777 -1778 -1779 1780 1781 1782 1783 1784 1785 1786 1787 1788 1789
v 1790 1791 1792 1793 1794 1795 1796 1797 1798 1799 1800 1801 1802 1803 1804
v -1805 -1806 -1807 -1808 -1809 -1810 -1811 -1812 -1813 -1814 -1815 -1816
v -1817 -1818 -1819 -1820 -1821 -1822 -1823 -1824 -1825 -1826 -1827 -1828
v -1829 -1830 -1831 -1832 -1833 -1834 -1835 -1836 -1837 -1838 -1839 -1840
v -1841 -1842 -1843 -1844 -1845 -1846 -1847 -1848 -1849 -1850 -1851 -1852
v -1853 -1854 -1855 1856 1857 1858 1859 1860 1861 1862 1863 1864 1865 1866
v 1867 1868 1869 1870 1871 1872 1873 1874 1875 1876 1877 1878 -1879 -1880
v -1881 -1882 -1883 -1884 -1885 -1886 -1887 -1888 -1889 -1890 -1891 -1892
v -1893 -1894 -1895 -1896 -1897 -1898 -1899 -1900 -1901 -1902 -1903 -1904
v -1905 -1906 -1907 -1908 -1909 -1910 -1911 -1912 -1913 -1914 -1915 -1916
v -1917 -1918 -1919 -1920 -1921 -1922 -1923 -1924 -1925 -1926 -1927 -1928
v -1929 -1930 1931 1932 1933 1934 1935 1936 1937 1938 1939 1940 1941 1942 1943
v 1944 1945 1946 1947 1948 1949 1950 1951 1952 -1953 -1954 -1955 -1956 -1957
v -1958 -1959 -1960 -1961 -1962 -1963 -1964 -1965 -1966 -1967 -1968 -1969
v -1970 -1971 -1972 -1973 -1974 -1975 -1976 -1977 -1978 -1979 -1980 -1981
v -1982 -1983 -1984 -1985 -1986 -1987 -1988 -1989 -1990 -1991 -1992 -1993
v -1994 -1995 -1996 -1997 -1998 -1999 -2000 -2001 -2002 -2003 -2004 -2005
v -2006 2007 2008 2009 2010 2011 2012 2013 2014 2015 2016 2017 2018 2019 2020
v 2021 2022 2023 2024 2025 2026 -2027 -2028 -2029 -2030 -2031 -2032 -2033
v -2034 -2035 -2036 -2037 -2038 -2039 -2040 -2041 -2042 -2043 -2044 -2045
v -2046 -2047 -2048 -2049 -2050 -2051 -2052 -2053 -2054 -2055 -2056 -2057
v -2058 -2059 -2060 -2061 -2062 -2063 -2064 -2065 -2066 -2067 -2068 -2069
v -2070 -2071 -2072 -2073 -2074 -2075 -2076 -2077 -2078 -2079 -2080 -2081
v -2082 -2083 2084 2085 2086 2087 2088 2089 2090 2091 2092 2093 2094 2095 2096
v 2097 2098 2099 2100 -2101 -2102 -2103 -2104 -2105 -2106 -2107 -2108 -2109
v -2110 -2111 -2112 -2113 -2114 -2115 -2116 -2117 -2118 -2119 -2120 -2121
v -2122 -2123 -2124 -2125 -2126 -2127 -2128 -2129 -2130 -2131 -2132 -2133
v -2134 -2135 -2136 -2137 -2138 -2139 -2140 -2141 -2142 -2143 -2144 -2145
v -2146 -2147 -2148 -2149 -2150 -2151 -2152 -2153 -2154 -2155 -2156 -2157
v -2158 2159 2160 2161 2162 2163 2164 2165 2166 2167 2168 2169 2170 2171 2172
v 2173 2174 -2175 -2176 -2177 -2178 -2179 -2180 -2181 -2182 -2183 -2184 -2185
v -2186 -2187 -2188 -2189 -2190 -2191 -2192 -2193 -2194 -2195 -2196 -2197
v -2198 -2199 -2200 -2201 -2202 -2203 -2204 -2205 -2206 -2207 -2208 -2209
v -2210 -2211 -2212 -2213 -2214 -2215 -2216 -2217 -2218 -2219 -2220 -2221
v -2222 -2223 -2224 -2225 -2226 -2227 -2228 -2229 -2230 -2231 -2232 -2233
v -2234 -2235 -2236 -2237 2238 2239 2240 2241 2242 2243 2244 2245 2246 2247
v 2248 -2249 -2250 -2251 -2252 -2253 -2254 -2255 -2256 -2257 -2258 -2259 -2260
v -2261 -2262 -2263 -2264 -2265 -2266 -2267 -2268 -2269 -2270 -2271 -2272
v -2273 -2274 -2275 -2276 -2277 -2278 -2279 -2280 -2281 -2282 -2283 -2284
v -2285 -2286 -2287 -2288 -2289 -2290 -2291 -2292 -2293 -2294 -2295 -2296
v -2297 -2298 -2299 -2300 -2301 -2302 -2303 -2304 -2305 -2306 -2307 -2308
v -2309 -2310 -2311 -2312 -2313 2314 2315 2316 2317 2318 2319 2320 2321 2322
v -2323 -2324 -2325 -2326 -2327 -2328 -2329 -2330 -2331 -2332 -2333 -2334
v -2335 -2336 -2337 -2338 -2339 -2340 -2341 -2342 -2343 -2344 -2345 -2346
v -2347 -2348 -2349 -2350 -2351 -2352 -2353 -2354 -2355 -2356 -2357 -2358
v -2359 -2360 -2361 -2362 -2363 -2364 -2365 -2366 -2367 -2368 -2369 -2370
v -2371 -2372 -2373 -2374 -2375 -2376 -2377 -2378 -2379 -2380 -2381 -2382
v -2383 -2384 -2385 -2386 -2387 -2388 2389 2390 2391 2392 2393 2394 2395 2396
v -2397 -2398 -2399 -2400 -2401 -2402 -2403 -2404 -2405 -2406 -2407 -2408
v -2409 -2410 -2411 -2412 -2413 -2414 -2415 -2416 -2417 -2418 -2419 -2420
v -2421 -2422 -2423 -2424 -2425 -2426 -2427 -2428 -2429 -2430 -2431 -2432
v -2433 -2434 -2435 -2436 -2437 -2438 -2439 -2440 -2441 -2442 -2443 -2444
v -2445 -2446 -2447 -2448 -2449 -2450 -2451 -2452 -2453 -2454 -2455 -2456
v -2457 -2458 -2459 -2460 -2461 -2462 -2463 -2464 2465 2466 2467 2468 2469
v 2470 -2471 -2472 -2473 -2474 -2475 -2476 -2477 -2478 -2479 -2480 -2481 -2482
v -2483 -2484 -2485 -2486 -2487 -2488 -2489 -2490 -2491 -2492 -2493 -2494
v -2495 -2496 -2497 -2498 -2499 -2500 -2501 -2502 -2503 -2504 -2505 -2506
v -2507 -2508 -2509 -2510 -2511 -2512 -2513 -2514 -2515 -2516 -2517 -2518
v -2519 -2520 -2521 -2522 -2523 -2524 -2525 -2526 -2527 -2528 -2529 -2530
v -2531 -2532 -2533 -2534 -2535 -2536 -2537 -2538 -2539 2540 2541 2542 2543
v 2544 -2545 -2546 -2547 -2548 -2549 -2550 -2551 -2552 -2553 -2554 -2555 -2556
v -2557 -2558 -2559 -2560 -2561 -2562 -2563 -2564 -2565 -2566 -2567 -2568
v -2569 -2570 -2571 -2572 -2573 -2574 -2575 -2576 -2577 -2578 -2579 -2580
v -2581 -2582 -2583 -2584 -2585 -2586 -2587 -2588 -2589 -2590 -2591 -2592
v -2593 -2594 -2595 -2596 -2597 -2598 -2599 -2600 -2601 -2602 -2603 -2604
v -2605 -2606 -2607 -2608 -2609 -2610 -2611 -2612 -2613 -2614 -2615 2616 2617
v 2618 -2619 -2620 -2621 -2622 -2623 -2624 -2625 -2626 -2627 -2628 -2629 -2630
v -2631 -2632 -2633 -2634 -2635 -2636 -2637 -2638 -2639 -2640 -2641 -2642
v -2643 -2644 -2645 -2646 -2647 -2648 -2649 -2650 -2651 -2652 -2653 -2654
v -2655 -2656 -2657 -2658 -2659 -2660 -2661 -2662 -2663 -2664 -2665 -2666
v -2667 -2668 -2669 -2670 -2671 -2672 -2673 -2674 -2675 -2676 -2677 -2678
v -2679 -2680 -2681 -2682 -2683 -2684 -2685 -2686 -2687 -2688 -2689 -2690
v -2691 -2692 0
c 
c --- [ run-time profiling ] -------------------------------------------------
c 
c process time taken by individual solving procedures
c (percentage relative to process time for solving)
c 
c       231.63   97.63% search
c       149.24   62.90% unstable
c        78.12   32.93% stable
c         5.63    2.37% simplify
c         4.27    1.80% walk
c         3.14    1.32% subsume
c         1.15    0.48% vivify
c         0.60    0.25% probe
c         0.20    0.08% ternary
c         0.12    0.05% elim
c         0.00    0.00% parse
c         0.00    0.00% lucky
c   =================================
c       237.25  100.00% solve
c 
c last line shows process time for solving
c (percentage relative to total process time)
c 
c --- [ statistics ] ---------------------------------------------------------
c 
c chronological:            440103        19.90 %  of conflicts
c conflicts:               2211134      9319.68    per second
c decisions:               4032348     16995.88    per second
c eliminated:                 2042        75.85 %  of all variables
c fixed:                        82         3.05 %  of all variables
c learned:                 2168815        98.09 %  per conflict
c learned_lits:           86032972       100.00 %  learned literals
c minimized:                     0         0.00 %  learned literals
c shrunken:               29900884        34.76 %  learned literals
c minishrunken:            8478101         9.85 %  learned literals
c propagations:          185445067         0.78 M  per second
c reduced:                 1765434        79.84 %  per conflict
c rephased:                     66     33502.03    interval
c restarts:                  94159        23.48    interval
c stabilizing:                   6        38.27 %  of conflicts
c subsumed:                 293913         6.72 %  of all clauses
c strengthened:              13343         0.31 %  of all clauses
c ternary:                      44         0.04 %  of resolved
c vivified:                    228         0.01 %  of all clauses
c walked:                       21    105292.10    interval
c weakened:                   8716         2.90    average size
c 
c seconds are measured in process time for solving
c 
c --- [ resources ] ----------------------------------------------------------
c 
c total process time since initialization:       237.26    seconds
c total real time since initialization:          237.33    seconds
c maximum resident set size of process:           39.44    MB
c 
c --- [ shutting down ] ------------------------------------------------------
c 
c exit 10
